27	0

0	4	5	3	2	4
5	3	6	7	9
5	3	6	7	9
3	3	6	7	8
8	2	6	9
5	3	10	11	12
8	3	10	11	12
6	1	9
2	3	10	11	12
4	2	13	14
4	2	13	14
4	2	13	14
3	2	15	16
3	2	15	16
3	1	17
9	2	18	20
6	2	18	20
5	2	19	21
1	2	22	23
10	2	22	23
9	2	23	24
5	1	24
3	1	26
1	2	25	26
2	1	27
1	1	27
0	0
